PARAMETER_FILE = even/LKH_uncomplete_graph/x10/de/par/random135.par
PROBLEM_FILE = even/LKH_uncomplete_graph/x10/de/mat/random135.tsp
Successes/Runs = 0/10
Cost.min = 880, Cost.avg = 880.00, Cost.max = 880
Gap.min = 0.0000%, Gap.avg = 0.0000%, Gap.max = 0.0000%
Trials.min = 1000, Trials.avg = 1000.0, Trials.max = 1000
Time.min = 0.63 sec., Time.avg = 0.75 sec., Time.max = 0.87 sec.
Time.total = 7.55 sec.
请按任意键继续. . . 
